# Solution for model s-icep
# Objective value = 3.1999909178766461e+02
flowLmbda[0,0,0] 0
flowBeta[0,0,0,0] 20
flowBeta[0,1,0,0] 20
flowBeta[0,2,0,0] 14
flowBeta[0,3,0,0] 14
flowBeta[0,4,0,0] 14
flowBeta[0,5,0,0] 14
flowBeta[0,6,0,0] 14
flowBeta[0,7,0,0] 14
flowBeta[0,8,0,0] 18
flowBeta[0,9,0,0] 14
flowBeta[0,10,0,0] 0
flowBeta[0,11,0,0] 0
flowBeta[0,12,0,0] 0
flowBeta[0,13,0,0] 0
flowBeta[0,14,0,0] 0
flowBeta[0,15,0,0] 0
flowGamma[0,0,0,0,0] 20
flowGamma[0,0,1,0,0] 20
flowGamma[0,0,2,0,0] 14
flowGamma[0,0,3,0,0] 14
flowGamma[0,0,4,0,0] 14
flowGamma[0,0,5,0,0] 14
flowGamma[0,0,6,0,0] 14
flowGamma[0,0,7,0,0] 14
flowGamma[0,0,8,0,0] 18
flowGamma[0,0,9,0,0] 14
flowGamma[0,0,10,0,0] 0
flowGamma[0,0,11,0,0] 0
flowGamma[0,0,12,0,0] 0
flowGamma[0,0,13,0,0] 0
flowGamma[0,0,14,0,0] 0
flowGamma[0,0,15,0,0] 0
flowEpsilon[0,0,0,0] 20
flowEpsilon[0,1,0,0] 20
flowEpsilon[0,2,0,0] 14
flowEpsilon[0,3,0,0] 14
flowEpsilon[0,4,0,0] 14
flowEpsilon[0,5,0,0] 14
flowEpsilon[0,6,0,0] 14
flowEpsilon[0,7,0,0] 14
flowEpsilon[0,8,0,0] 18
flowEpsilon[0,9,0,0] 14
flowEpsilon[0,10,0,0] 0
flowEpsilon[0,11,0,0] 0
flowEpsilon[0,12,0,0] 0
flowEpsilon[0,13,0,0] 0
flowEpsilon[0,14,0,0] 0
flowEpsilon[0,15,0,0] 0
zetaSelect[0,0,0,0] 1
gammaSelect[0,0,0,0,0] 1
gammaSelect[0,0,1,0,0] 1
gammaSelect[0,0,2,0,0] 1
gammaSelect[0,0,3,0,0] 1
gammaSelect[0,0,4,0,0] 1
gammaSelect[0,0,5,0,0] 1
gammaSelect[0,0,6,0,0] 1
gammaSelect[0,0,7,0,0] 1
gammaSelect[0,0,8,0,0] 1
gammaSelect[0,0,9,0,0] 1
gammaSelect[0,0,10,0,0] 0
gammaSelect[0,0,11,0,0] 0
gammaSelect[0,0,12,0,0] 0
gammaSelect[0,0,13,0,0] 0
gammaSelect[0,0,14,0,0] 0
gammaSelect[0,0,15,0,0] 0
deltaSelect[0,0,0,0,0] 1
deltaSelect[0,0,1,0,0] 1
deltaSelect[0,0,2,0,0] 1
deltaSelect[0,0,3,0,0] 1
deltaSelect[0,0,4,0,0] 1
deltaSelect[0,0,5,0,0] 1
deltaSelect[0,0,6,0,0] 1
deltaSelect[0,0,7,0,0] 1
deltaSelect[0,0,8,0,0] 1
deltaSelect[0,0,9,0,0] 0
deltaSelect[0,0,10,0,0] 0
deltaSelect[0,0,11,0,0] 0
deltaSelect[0,0,12,0,0] 0
deltaSelect[0,0,13,0,0] 0
deltaSelect[0,0,14,0,0] 0
deltaSelect[0,0,15,0,0] 1
timeForResourceI[0,0] 319
isResInFleet[0] 1
numNotEva[0,0] 0
totalTime[0] 319
